c solution:  -1 -2 3 -4 -5 -6 7 -8 -9 -10 -11 -12 -13 14 -15 -16 -17 -18 -19 -20 -21 22 23 -24 -25 26 27 -28 29 -30 31 -32 -33 -34 -35 -36 -37 -38 -39 -40 41 -42 -43 -44 45 -46 -47 -48 -49 -50 -51 -52 53 -54 -55 -56 57 -58 -59 60 -61 62 63 -64 -65 -66 -67 -68 -69 -70 -71 -72 73 -74 -75 -76 -77 -78 79 80 -81 -82 -83 -84 -85 -86 -87 -88 89 -90 -91 -92 93 94 -95 -96 -97 98 -99 100
p cnf 100 200
-80 -2 0
-80 -78 0
-80 -75 0
-2 -78 0
-2 -75 0
-78 -75 0
-63 -9 0
-63 -15 0
-63 -55 0
-9 -15 0
-9 -55 0
-15 -55 0
-93 -43 0
-93 -17 0
-93 -83 0
-43 -17 0
-43 -83 0
-17 -83 0
-57 -35 0
-57 -92 0
-57 -12 0
-35 -92 0
-35 -12 0
-92 -12 0
-7 -84 0
-7 -20 0
-7 -99 0
-84 -20 0
-84 -99 0
-20 -99 0
-27 -38 0
-27 -70 0
-27 -32 0
-38 -70 0
-38 -32 0
-70 -32 0
-3 -40 0
-3 -28 0
-3 -68 0
-40 -28 0
-40 -68 0
-28 -68 0
-73 -6 0
-73 -10 0
-73 -56 0
-6 -10 0
-6 -56 0
-10 -56 0
-62 -21 0
-62 -64 0
-62 -95 0
-21 -64 0
-21 -95 0
-64 -95 0
-79 -72 0
-79 -49 0
-79 -81 0
-72 -49 0
-72 -81 0
-49 -81 0
-23 -59 0
-23 -46 0
-23 -5 0
-59 -46 0
-59 -5 0
-46 -5 0
-98 -24 0
-98 -16 0
-98 -4 0
-24 -16 0
-24 -4 0
-16 -4 0
-100 -61 0
-100 -96 0
-100 -13 0
-61 -96 0
-61 -13 0
-96 -13 0
-31 -11 0
-31 -48 0
-31 -19 0
-11 -48 0
-11 -19 0
-48 -19 0
-14 -51 0
-14 -30 0
-14 -65 0
-51 -30 0
-51 -65 0
-30 -65 0
-41 -52 0
-41 -97 0
-41 -47 0
-52 -97 0
-52 -47 0
-97 -47 0
-1 -37 0
-1 -86 0
-1 -18 0
-37 -86 0
-37 -18 0
-86 -18 0
-60 -34 0
-60 -69 0
-60 -87 0
-34 -69 0
-34 -87 0
-69 -87 0
-89 -33 0
-89 -8 0
-89 -36 0
-33 -8 0
-33 -36 0
-8 -36 0
-53 -71 0
-53 -58 0
-53 -88 0
-71 -58 0
-71 -88 0
-58 -88 0
-94 -67 0
-94 -90 0
-94 -77 0
-67 -90 0
-67 -77 0
-90 -77 0
-22 -91 0
-22 -66 0
-22 -25 0
-91 -66 0
-91 -25 0
-66 -25 0
-45 -82 0
-45 -54 0
-45 -44 0
-82 -54 0
-82 -44 0
-54 -44 0
-29 -74 0
-29 -39 0
-29 -50 0
-74 -39 0
-74 -50 0
-39 -50 0
-26 -42 0
-26 -76 0
-26 -85 0
-42 -76 0
-42 -85 0
-76 -85 0
100 66 17 32 0
63 72 68 52 0
31 16 78 10 0
26 47 70 34 0
7 5 2 56 0
41 25 46 69 0
23 49 43 38 0
29 61 90 59 0
73 30 76 83 0
27 82 88 96 0
3 19 36 21 0
98 33 18 9 0
89 65 20 44 0
80 99 81 95 0
79 35 37 87 0
45 13 50 84 0
57 71 8 86 0
22 92 77 6 0
1 75 40 39 0
94 4 54 55 0
14 11 64 97 0
53 74 15 85 0
93 42 67 24 0
60 91 51 58 0
62 12 28 48 0
94 64 38 24 0
27 66 15 46 0
3 43 35 74 0
1 54 76 87 0
60 67 11 25 0
29 42 95 37 0
57 65 91 88 0
93 97 33 92 0
7 2 17 52 0
41 12 34 5 0
100 21 84 68 0
26 99 13 51 0
22 18 58 44 0
89 77 47 30 0
62 32 72 75 0
45 61 19 16 0
63 70 81 90 0
79 8 40 9 0
80 78 36 59 0
73 82 71 50 0
53 49 6 48 0
23 69 20 10 0
14 83 56 96 0
31 85 55 28 0
98 4 39 86 0
